(set-info :source |printed by MathSAT|)
(declare-fun .x.14 () Int)
(declare-fun .x.15 () Int)
(declare-fun main@%.0.i_0_0 () Int)
(declare-fun .x.16 () Int)
(declare-fun main@%_11_0_0 () Int)
(declare-fun .x.17 () Int)
(declare-fun main@%assume.flag.0_0_0 () Bool)
(declare-fun .x.18 () Bool)
(declare-fun main@%_4_0_0 () Int)
(declare-fun main@%_4_1 () Int)
(declare-fun main@%shadow.mem.1_0_0 () (Array Int Int))
(declare-fun .x.19 () (Array Int Int))
(declare-fun main@%_13_0_0 () Int)
(declare-fun .x.20 () Int)
(declare-fun main@%_1_0_0 () Int)
(declare-fun main@%_1_1 () Int)
(declare-fun main@%_3_0_0 () Bool)
(declare-fun main@%_3_1 () Bool)
(declare-fun main@%.01.i1_0_0 () Int)
(declare-fun main@%.01.i1_2 () Int)
(declare-fun main@%shadow.mem.0_0_0 () (Array Int Int))
(declare-fun main@%shadow.mem.0_2 () (Array Int Int))
(declare-fun main@%_17_0 () Int)
(define-fun .def_8 () Int (! .x.14 :next |.x.15|))
(define-fun .def_10 () Int (! main@%.0.i_0_0 :next |.x.16|))
(define-fun .def_12 () Int (! main@%_11_0_0 :next |.x.17|))
(define-fun .def_14 () Bool (! main@%assume.flag.0_0_0 :next |.x.18|))
(define-fun .def_16 () Int (! main@%_4_0_0 :next |main@%_4_1|))
(define-fun .def_18 () (Array Int Int) (! main@%shadow.mem.1_0_0 :next |.x.19|))
(define-fun .def_20 () Int (! main@%_13_0_0 :next |.x.20|))
(define-fun .def_22 () Int (! main@%_1_0_0 :next |main@%_1_1|))
(define-fun .def_24 () Bool (! main@%_3_0_0 :next |main@%_3_1|))
(define-fun .def_26 () Int (! main@%.01.i1_0_0 :next |main@%.01.i1_2|))
(define-fun .def_28 () (Array Int Int) (! main@%shadow.mem.0_0_0 :next |main@%shadow.mem.0_2|))
(define-fun .def_55 () Int (! main@%_17_0 :next |.xtv.1|))
(define-fun .def_178 () Bool (! (= .def_8 0) :init true))
(define-fun .def_160 () Bool (<= main@%_1_1 0))
(define-fun .def_168 () Bool (not .def_160))
(define-fun .def_182 () Bool (= main@%_3_1 .def_168))
(define-fun .def_179 () Bool (<= main@%_4_1 0))
(define-fun .def_180 () Bool (not .def_179))
(define-fun .def_181 () Bool (and .def_178 .def_180))
(define-fun .def_183 () Bool (and .def_181 .def_182))
(define-fun .def_175 () Bool (= main@%.01.i1_2 0))
(define-fun .def_135 () Bool (= .x.15 1))
(define-fun .def_169 () Bool (and .def_135 .def_168))
(define-fun .def_30 () Bool (= .def_10 .x.16))
(define-fun .def_170 () Bool (and .def_30 .def_169))
(define-fun .def_32 () Bool (= .def_12 .x.17))
(define-fun .def_171 () Bool (and .def_32 .def_170))
(define-fun .def_34 () Bool (= .def_14 .x.18))
(define-fun .def_172 () Bool (and .def_34 .def_171))
(define-fun .def_36 () Bool (= .def_18 .x.19))
(define-fun .def_173 () Bool (and .def_36 .def_172))
(define-fun .def_38 () Bool (= .def_20 .x.20))
(define-fun .def_174 () Bool (and .def_38 .def_173))
(define-fun .def_176 () Bool (and .def_174 .def_175))
(define-fun .def_162 () Bool (= .x.18 main@%_3_1))
(define-fun .def_157 () Int (* (- 1) main@%_1_1))
(define-fun .def_158 () Int (+ .x.17 .def_157))
(define-fun .def_159 () Bool (= .def_158 (- 1)))
(define-fun .def_161 () Bool (and .def_159 .def_160))
(define-fun .def_163 () Bool (and .def_161 .def_162))
(define-fun .def_101 () Bool (= .x.16 0))
(define-fun .def_164 () Bool (and .def_101 .def_163))
(define-fun .def_78 () Bool (= .x.15 2))
(define-fun .def_165 () Bool (and .def_78 .def_164))
(define-fun .def_40 () Bool (= .def_26 main@%.01.i1_2))
(define-fun .def_166 () Bool (and .def_40 .def_165))
(define-fun .def_42 () Bool (= .def_28 main@%shadow.mem.0_2))
(define-fun .def_167 () Bool (and .def_42 .def_166))
(define-fun .def_177 () Bool (or .def_167 .def_176))
(define-fun .def_184 () Bool (and .def_177 .def_183))
(define-fun .def_148 () Int (* (- 1) main@%.01.i1_2))
(define-fun .def_149 () Int (+ .def_26 .def_148))
(define-fun .def_150 () Bool (= .def_149 (- 1)))
(define-fun .def_105 () Int (+ .def_16 .def_26))
(define-fun .def_121 () (Array Int Int) (store .def_28 .def_105 .def_26))
(define-fun .def_145 () Bool (= main@%shadow.mem.0_2 .def_121))
(define-fun .def_112 () Int (* (- 1) .def_26))
(define-fun .def_113 () Int (+ .def_22 .def_112))
(define-fun .def_114 () Bool (<= .def_113 1))
(define-fun .def_143 () Bool (not .def_114))
(define-fun .def_136 () Bool (and .def_30 .def_135))
(define-fun .def_137 () Bool (and .def_32 .def_136))
(define-fun .def_138 () Bool (and .def_34 .def_137))
(define-fun .def_139 () Bool (and .def_36 .def_138))
(define-fun .def_140 () Bool (and .def_38 .def_139))
(define-fun .def_106 () Bool (<= .def_105 0))
(define-fun .def_107 () Bool (not .def_106))
(define-fun .def_45 () Bool (<= .def_16 0))
(define-fun .def_108 () Bool (or .def_45 .def_107))
(define-fun .def_141 () Bool (and .def_108 .def_140))
(define-fun .def_46 () Bool (not .def_45))
(define-fun .def_142 () Bool (and .def_46 .def_141))
(define-fun .def_144 () Bool (and .def_142 .def_143))
(define-fun .def_146 () Bool (and .def_144 .def_145))
(define-fun .def_151 () Bool (and .def_146 .def_150))
(define-fun .def_116 () Bool (= .def_8 1))
(define-fun .def_152 () Bool (and .def_116 .def_151))
(define-fun .def_48 () Bool (= .def_16 main@%_4_1))
(define-fun .def_153 () Bool (and .def_48 .def_152))
(define-fun .def_50 () Bool (= .def_22 main@%_1_1))
(define-fun .def_154 () Bool (and .def_50 .def_153))
(define-fun .def_52 () Bool (= .def_24 main@%_3_1))
(define-fun .def_155 () Bool (and .def_52 .def_154))
(define-fun .def_185 () Bool (or .def_155 .def_184))
(define-fun .def_133 () Bool (= .x.18 .def_24))
(define-fun .def_129 () Int (* (- 1) .def_22))
(define-fun .def_130 () Int (+ .x.17 .def_129))
(define-fun .def_131 () Bool (= .def_130 (- 1)))
(define-fun .def_124 () Int (select .def_121 .def_16))
(define-fun .def_125 () Bool (= .x.20 .def_124))
(define-fun .def_122 () Bool (= .x.19 .def_121))
(define-fun .def_102 () Bool (and .def_78 .def_101))
(define-fun .def_103 () Bool (and .def_40 .def_102))
(define-fun .def_104 () Bool (and .def_42 .def_103))
(define-fun .def_109 () Bool (and .def_104 .def_108))
(define-fun .def_110 () Bool (and .def_46 .def_109))
(define-fun .def_115 () Bool (and .def_110 .def_114))
(define-fun .def_117 () Bool (and .def_115 .def_116))
(define-fun .def_118 () Bool (and .def_48 .def_117))
(define-fun .def_119 () Bool (and .def_50 .def_118))
(define-fun .def_120 () Bool (and .def_52 .def_119))
(define-fun .def_123 () Bool (and .def_120 .def_122))
(define-fun .def_126 () Bool (and .def_123 .def_125))
(define-fun .def_132 () Bool (and .def_126 .def_131))
(define-fun .def_134 () Bool (and .def_132 .def_133))
(define-fun .def_186 () Bool (or .def_134 .def_185))
(define-fun .def_56 () Int (* (- 1) .def_55))
(define-fun .def_57 () Int (+ .def_16 .def_56))
(define-fun .def_97 () Int (+ .x.16 .def_57))
(define-fun .def_98 () Bool (= .def_97 0))
(define-fun .def_65 () Int (select .def_18 .def_55))
(define-fun .def_93 () Bool (= .x.20 .def_65))
(define-fun .def_68 () Bool (<= .def_12 .def_10))
(define-fun .def_69 () Bool (not .def_68))
(define-fun .def_90 () Bool (and .def_14 .def_69))
(define-fun .def_91 () Bool (= .x.18 .def_90))
(define-fun .def_66 () Bool (<= .def_65 .def_20))
(define-fun .def_88 () Bool (not .def_66))
(define-fun .def_77 () Bool (and .def_32 .def_36))
(define-fun .def_79 () Bool (and .def_77 .def_78))
(define-fun .def_80 () Bool (and .def_40 .def_79))
(define-fun .def_81 () Bool (and .def_42 .def_80))
(define-fun .def_82 () Bool (and .def_46 .def_81))
(define-fun .def_83 () Bool (and .def_48 .def_82))
(define-fun .def_84 () Bool (and .def_50 .def_83))
(define-fun .def_85 () Bool (and .def_52 .def_84))
(define-fun .def_58 () Int (+ .def_10 .def_57))
(define-fun .def_59 () Bool (= .def_58 (- 1)))
(define-fun .def_86 () Bool (and .def_59 .def_85))
(define-fun .def_61 () Bool (<= .def_55 0))
(define-fun .def_62 () Bool (not .def_61))
(define-fun .def_63 () Bool (or .def_45 .def_62))
(define-fun .def_87 () Bool (and .def_63 .def_86))
(define-fun .def_89 () Bool (and .def_87 .def_88))
(define-fun .def_92 () Bool (and .def_89 .def_91))
(define-fun .def_94 () Bool (and .def_92 .def_93))
(define-fun .def_99 () Bool (and .def_94 .def_98))
(define-fun .def_72 () Bool (= .def_8 2))
(define-fun .def_100 () Bool (and .def_72 .def_99))
(define-fun .def_187 () Bool (or .def_100 .def_186))
(define-fun .def_75 () Bool (= .x.15 3))
(define-fun .def_31 () Bool (and .def_14 .def_30))
(define-fun .def_33 () Bool (and .def_31 .def_32))
(define-fun .def_35 () Bool (and .def_33 .def_34))
(define-fun .def_37 () Bool (and .def_35 .def_36))
(define-fun .def_39 () Bool (and .def_37 .def_38))
(define-fun .def_41 () Bool (and .def_39 .def_40))
(define-fun .def_43 () Bool (and .def_41 .def_42))
(define-fun .def_47 () Bool (and .def_43 .def_46))
(define-fun .def_49 () Bool (and .def_47 .def_48))
(define-fun .def_51 () Bool (and .def_49 .def_50))
(define-fun .def_53 () Bool (and .def_51 .def_52))
(define-fun .def_60 () Bool (and .def_53 .def_59))
(define-fun .def_64 () Bool (and .def_60 .def_63))
(define-fun .def_67 () Bool (and .def_64 .def_66))
(define-fun .def_70 () Bool (and .def_67 .def_69))
(define-fun .def_73 () Bool (and .def_70 .def_72))
(define-fun .def_76 () Bool (and .def_73 .def_75))
(define-fun .def_188 () Bool (! (or .def_76 .def_187) :trans true))
(define-fun .def_189 () Bool (= .def_8 3))
(define-fun .def_190 () Bool (! (not .def_189) :invar-property 0))
(assert true)
